
#(C) 2019 by FIZ Karlsruhe - Leibniz Institute for Information Infrastructure.  All rights reserved.
data_160383-ICSD
_database_code_ICSD 160383
_audit_creation_date 2008-08-01
_chemical_name_systematic 'Bismuth tin (1/1) - B'
_chemical_formula_structural 'Bi Sn'
_chemical_formula_sum 'Bi1 Sn1'
_chemical_name_structure_type Si(oS16)
_exptl_crystal_density_diffrn 10.82
_cell_measurement_pressure 3000000.
_publ_section_title 'Ab initio study of Cmca phase of Bi50 Sn50 ordered alloy'
loop_
_citation_id
_citation_journal_full
_citation_year
_citation_journal_volume
_citation_page_first
_citation_page_last
_citation_journal_id_ASTM
primary 'Solid State Communications' 2008 146 45 48 SSCOA4
loop_
_publ_author_name
'Liu Bing Bing'
_cell_length_a 10.396
_cell_length_b 6.221
_cell_length_c 6.219
_cell_angle_alpha 90.
_cell_angle_beta 90.
_cell_angle_gamma 90.
_cell_volume 402.2
_cell_formula_units_Z 8
_symmetry_space_group_name_H-M 'C m c a'
_symmetry_Int_Tables_number 64
loop_
_symmetry_equiv_pos_site_id
_symmetry_equiv_pos_as_xyz
1 '-x, -y+1/2, z+1/2'
2 '-x, y+1/2, -z+1/2'
3 '-x, y, z'
4 '-x, -y, -z'
5 'x, y+1/2, -z+1/2'
6 'x, -y+1/2, z+1/2'
7 'x, -y, -z'
8 'x, y, z'
9 '-x+1/2, -y, z+1/2'
10 '-x+1/2, y, -z+1/2'
11 '-x+1/2, y+1/2, z'
12 '-x+1/2, -y+1/2, -z'
13 'x+1/2, y, -z+1/2'
14 'x+1/2, -y, z+1/2'
15 'x+1/2, -y+1/2, -z'
16 'x+1/2, y+1/2, z'
loop_
_atom_type_symbol
_atom_type_oxidation_number
Sn0+ 0
Bi0+ 0
loop_
_atom_site_label
_atom_site_type_symbol
_atom_site_symmetry_multiplicity
_atom_site_Wyckoff_symbol
_atom_site_fract_x
_atom_site_fract_y
_atom_site_fract_z
_atom_site_B_iso_or_equiv
_atom_site_occupancy
_atom_site_attached_hydrogens
Sn1 Sn0+ 8 d 0.217 0 0 . 1. 0
Bi1 Bi0+ 8 f 0 0.167 0.316 . 1. 0
#End of TTdata_160383-ICSD