
#(C) 2019 by FIZ Karlsruhe - Leibniz Institute for Information Infrastructure.  All rights reserved.
data_181258-ICSD
_database_code_ICSD 181258
_audit_creation_date 2012-02-01
_chemical_name_systematic 'Copper antimonide (2/1)'
_chemical_formula_structural 'Cu2 Sb'
_chemical_formula_sum 'Cu2 Sb1'
_chemical_name_structure_type Cu2Sb
_exptl_crystal_density_diffrn 8.65
_publ_section_title

;
Theoretical investigation for Li2 Cu Sb as multifunctional materials:
electrode for high capacity rechargeable batteries and novel materials for
second harmonic generation
;
loop_
_citation_id
_citation_journal_full
_citation_year
_citation_journal_volume
_citation_page_first
_citation_page_last
_citation_journal_id_ASTM
primary 'Journal of Alloys and Compounds' 2011 509 7861 7869 JALCEU
loop_
_publ_author_name
'Reshak, A.H.'
'Kamarudin, H.'
_cell_length_a 3.97
_cell_length_b 3.97
_cell_length_c 6.06
_cell_angle_alpha 90.
_cell_angle_beta 90.
_cell_angle_gamma 90.
_cell_volume 95.51
_cell_formula_units_Z 2
_symmetry_space_group_name_H-M 'P 4/n m m Z'
_symmetry_Int_Tables_number 129
loop_
_symmetry_equiv_pos_site_id
_symmetry_equiv_pos_as_xyz
1 'y+1/2, x+1/2, -z'
2 '-y, x+1/2, -z'
3 'y+1/2, -x, -z'
4 '-y, -x, -z'
5 'x+1/2, y+1/2, -z'
6 '-x, y+1/2, -z'
7 'x+1/2, -y, -z'
8 '-x, -y, -z'
9 '-y+1/2, -x+1/2, z'
10 'y, -x+1/2, z'
11 '-y+1/2, x, z'
12 'y, x, z'
13 '-x+1/2, -y+1/2, z'
14 'x, -y+1/2, z'
15 '-x+1/2, y, z'
16 'x, y, z'
loop_
_atom_type_symbol
_atom_type_oxidation_number
Cu0+ 0
Sb0+ 0
loop_
_atom_site_label
_atom_site_type_symbol
_atom_site_symmetry_multiplicity
_atom_site_Wyckoff_symbol
_atom_site_fract_x
_atom_site_fract_y
_atom_site_fract_z
_atom_site_B_iso_or_equiv
_atom_site_occupancy
_atom_site_attached_hydrogens
Cu1 Cu0+ 2 a 0.75 0.25 0 . 1. 0
Cu2 Cu0+ 2 c 0.25 0.25 0.27 . 1. 0
Sb1 Sb0+ 2 c 0.25 0.25 0.7 . 1. 0
#End of TTdata_181258-ICSD