
#(C) 2019 by FIZ Karlsruhe - Leibniz Institute for Information Infrastructure.  All rights reserved.
data_182834-ICSD
_database_code_ICSD 182834
_audit_creation_date 2012-08-01
_chemical_name_systematic 'Sodium aluminium silicide (1/1/1)'
_chemical_formula_structural 'Na Al Si'
_chemical_formula_sum 'Al1 Na1 Si1'
_chemical_name_structure_type PbClF
_exptl_crystal_density_diffrn 2.06
_publ_section_title
'First principles calculation of thermodynamic properties of Na Al Si ternary'
loop_
_citation_id
_citation_journal_full
_citation_year
_citation_journal_volume
_citation_page_first
_citation_page_last
_citation_journal_id_ASTM
primary 'Physica B: Condensed Matter (Amsterdam, Netherlands)' 2012 407 193 197
PHYBE3
loop_
_publ_author_name
'Qin, Ji Ning'
'Lu, Wei Jie'
'Zhang, Di'
'Fan, Tong Xiang'
_cell_length_a 4.133
_cell_length_b 4.133
_cell_length_c 7.368
_cell_angle_alpha 90.
_cell_angle_beta 90.
_cell_angle_gamma 90.
_cell_volume 125.86
_cell_formula_units_Z 2
_symmetry_space_group_name_H-M 'P 4/n m m Z'
_symmetry_Int_Tables_number 129
loop_
_symmetry_equiv_pos_site_id
_symmetry_equiv_pos_as_xyz
1 'y+1/2, x+1/2, -z'
2 '-y, x+1/2, -z'
3 'y+1/2, -x, -z'
4 '-y, -x, -z'
5 'x+1/2, y+1/2, -z'
6 '-x, y+1/2, -z'
7 'x+1/2, -y, -z'
8 '-x, -y, -z'
9 '-y+1/2, -x+1/2, z'
10 'y, -x+1/2, z'
11 '-y+1/2, x, z'
12 'y, x, z'
13 '-x+1/2, -y+1/2, z'
14 'x, -y+1/2, z'
15 '-x+1/2, y, z'
16 'x, y, z'
loop_
_atom_type_symbol
_atom_type_oxidation_number
Na1+ 1
Al3+ 3
Si4- -4
loop_
_atom_site_label
_atom_site_type_symbol
_atom_site_symmetry_multiplicity
_atom_site_Wyckoff_symbol
_atom_site_fract_x
_atom_site_fract_y
_atom_site_fract_z
_atom_site_B_iso_or_equiv
_atom_site_occupancy
_atom_site_attached_hydrogens
Na1 Na1+ 2 c 0.25 0.25 0.622 . 1. 0
Al1 Al3+ 2 a 0.75 0.25 0 . 1. 0
Si1 Si4- 2 c 0.25 0.25 0.223 . 1. 0
#End of TTdata_182834-ICSD