
#(C) 2019 by FIZ Karlsruhe - Leibniz Institute for Information Infrastructure.  All rights reserved.
data_247832-ICSD
_database_code_ICSD 247832
_audit_creation_date 2013-08-01
_chemical_name_systematic 'Lutetium iron silicide (2/3/5)'
_chemical_formula_structural 'Lu2 Fe3 Si5'
_chemical_formula_sum 'Fe3 Lu2 Si5'
_chemical_name_structure_type Fe3Sc2Si5
_exptl_crystal_density_diffrn 8.01
_publ_section_title

;
Electronic structure and Fermi surface of iron-based superconductors R2 Fe3
Si5 (R = Lu;Y;Sc) from first principles
;
loop_
_citation_id
_citation_journal_full
_citation_year
_citation_journal_volume
_citation_page_first
_citation_page_last
_citation_journal_id_ASTM
primary Intermetallics 2012 31 186 190 IERME5
loop_
_publ_author_name
'Samsel-Czekala, M.'
'Winiarski, M.J.'
_cell_length_a 10.164
_cell_length_b 10.164
_cell_length_c 5.284
_cell_angle_alpha 90.
_cell_angle_beta 90.
_cell_angle_gamma 90.
_cell_volume 545.87
_cell_formula_units_Z 4
_symmetry_space_group_name_H-M 'P 4/m n c'
_symmetry_Int_Tables_number 128
loop_
_symmetry_equiv_pos_site_id
_symmetry_equiv_pos_as_xyz
1 'y+1/2, x+1/2, -z+1/2'
2 '-y+1/2, -x+1/2, -z+1/2'
3 '-y, x, -z'
4 'y, -x, -z'
5 'x+1/2, -y+1/2, -z+1/2'
6 '-x+1/2, y+1/2, -z+1/2'
7 'x, y, -z'
8 '-x, -y, -z'
9 '-y+1/2, -x+1/2, z+1/2'
10 'y+1/2, x+1/2, z+1/2'
11 'y, -x, z'
12 '-y, x, z'
13 '-x+1/2, y+1/2, z+1/2'
14 'x+1/2, -y+1/2, z+1/2'
15 '-x, -y, z'
16 'x, y, z'
loop_
_atom_type_symbol
_atom_type_oxidation_number
Lu3+ 3
Fe0+ 0
Si0+ 0
loop_
_atom_site_label
_atom_site_type_symbol
_atom_site_symmetry_multiplicity
_atom_site_Wyckoff_symbol
_atom_site_fract_x
_atom_site_fract_y
_atom_site_fract_z
_atom_site_B_iso_or_equiv
_atom_site_occupancy
_atom_site_attached_hydrogens
Lu1 Lu3+ 8 h 0.0701 0.25 0 . 1. 0
Fe1 Fe0+ 4 d 0 0.5 0.25 . 1. 0
Fe2 Fe0+ 8 h 0.379 0.3601 0 . 1. 0
Si1 Si0+ 8 g 0.1779 0.6779 0.25 . 1. 0
Si2 Si0+ 4 e 0 0 0.2528 . 1. 0
Si3 Si0+ 8 h 0.1799 0.4761 0 . 1. 0
#End of TTdata_247832-ICSD
