
#(C) 2019 by FIZ Karlsruhe - Leibniz Institute for Information Infrastructure.  All rights reserved.
data_290701-ICSD
_database_code_ICSD 290701
_audit_creation_date 2014-08-01
_chemical_name_systematic 'Iron selenide'
_chemical_formula_structural 'Fe Se'
_chemical_formula_sum 'Fe1 Se1'
_chemical_name_structure_type FeSe
_exptl_crystal_density_diffrn 5.71
_publ_section_title

;
Modelling the electronic structure and magnetic properties of Li Fe As and Fe
Se using hybrid-exchange density functional theory
;
loop_
_citation_id
_citation_journal_full
_citation_year
_citation_journal_volume
_citation_page_first
_citation_page_last
_citation_journal_id_ASTM
primary 'Solid State Communications' 2013 161 23 28 SSCOA4
loop_
_publ_author_name
'Wu, Wei'
_cell_length_a 3.768
_cell_length_b 3.768
_cell_length_c 5.519
_cell_angle_alpha 90.
_cell_angle_beta 90.
_cell_angle_gamma 90.
_cell_volume 78.36
_cell_formula_units_Z 2
_symmetry_space_group_name_H-M 'P 4/n m m Z'
_symmetry_Int_Tables_number 129
loop_
_symmetry_equiv_pos_site_id
_symmetry_equiv_pos_as_xyz
1 'y+1/2, x+1/2, -z'
2 '-y, x+1/2, -z'
3 'y+1/2, -x, -z'
4 '-y, -x, -z'
5 'x+1/2, y+1/2, -z'
6 '-x, y+1/2, -z'
7 'x+1/2, -y, -z'
8 '-x, -y, -z'
9 '-y+1/2, -x+1/2, z'
10 'y, -x+1/2, z'
11 '-y+1/2, x, z'
12 'y, x, z'
13 '-x+1/2, -y+1/2, z'
14 'x, -y+1/2, z'
15 '-x+1/2, y, z'
16 'x, y, z'
loop_
_atom_type_symbol
_atom_type_oxidation_number
Fe2+ 2
Se2- -2
loop_
_atom_site_label
_atom_site_type_symbol
_atom_site_symmetry_multiplicity
_atom_site_Wyckoff_symbol
_atom_site_fract_x
_atom_site_fract_y
_atom_site_fract_z
_atom_site_B_iso_or_equiv
_atom_site_occupancy
_atom_site_attached_hydrogens
Fe1 Fe2+ 2 a 0.25 -0.25 0 . 1. 0
Se1 Se2- 2 c 0.25 0.25 0.29 . 1. 0
#End of TTdata_290701-ICSD
